(assert (forall ((pkt_0_4_6_0  Int  )(state_group_0_state_0_5_7_0  Int  )(state_group_0_state_1_6_8_0  Int  )) (let ((_n0 state_group_0_state_1_6_8_0 ))
(let ((_n1 state_group_0_state_0_5_7_0 ))
(let ((_n2 true ))
(let ((_n3 (+   _n1   (ite  _n2  1 0) ) ))
(let ((_n4 (ite (=  _n0  0)  _n3   _n1  ) ))
(let ((_n5 997 ))
(let ((_n6 pkt_0_4_6_0 ))
(let ((_n7 (-  _n6 )))
(let ((_n8 (+   _n1   _n7 ) ))
(let ((_n9 (=   _n8   _n5 ) ))
(let ((_n10 false ))
(let ((_n11 (ite (=  _n8  997)  (ite  _n10  1 0)   _n0  ) ))
(let ((_n12 (<   _n11   (ite  _n2  1 0) ) ))
(let ((_n13 (ite (=  _n8  997)  _n10   _n12  ) ))
(let ((_n14 (not  _n13 ) ))
(let ((_n15 (or   _n14   _n9 ) ))
(let ((_n16 999 ))
(let ((_n17 (ite  _n15   (ite  _n10  1 0)   _n1  ) ))
(let ((_n18 (=   _n17   _n16 ) ))
(let ((_n19 (ite  _n15   _n10   _n18  ) ))
(let ((_n20 (or   _n19   _n15 ) ))
(let ((_n21 2 ))
(let ((_n22 (ite  _n20   (ite  _n10  1 0)   _n21  ) ))
(let ((_n23 (-  _n22 )))
(let ((_n24 3 ))
(let ((_n25 (ite  _n20   (ite  _n10  1 0)   _n24  ) ))
(let ((_n26 (+   _n25   _n23 ) ))
(let ((_n27 (ite  _n20   (ite  _n10  1 0)   _n26  ) ))
(let ((_n28 (+   _n1   _n27 ) ))
(let ((_n29 (not  _n19 ) ))
(let ((_n30 (or   _n29   _n15 ) ))
(let ((_n31 (not  _n30 ) ))
(let ((_n32 (ite  _n30   (ite  _n10  1 0)   _n6  ) ))
(let ((_n33 (+   _n32   (ite  _n31  1 0) ) ))
(let ((_n34 (ite  _n30   (ite  _n10  1 0)   _n33  ) ))
(let ((_n35 (+   _n1   _n34 ) ))
(let ((_n36 (ite (=  (ite  _n19  1 0)  1)  _n35   _n28  ) ))
(let ((_n37 (ite (=  (ite  _n13  1 0)  1)  _n36   _n1  ) ))
(let ((_n38 (ite (=  _n8  997)  _n24   (ite  _n10  1 0)  ) ))
(let ((_n39 (ite (=  _n8  997)  _n38   (ite  _n10  1 0)  ) ))
(let ((_n40 (+   _n1   _n39 ) ))
(let ((_n41 (ite (=  (ite  _n9  1 0)  1)  _n40   _n37  ) ))
(let ((_n42 (=   _n41   _n4 ) ))
(let ((_n44 (ite (=  _n1  999)  (ite  _n2  1 0)   _n0  ) ))
(let ((_n45 (ite (=  _n0  0)  _n44   _n0  ) ))
(let ((_n46 (+   _n0   _n34 ) ))
(let ((_n47 (ite (=  (ite  _n19  1 0)  1)  _n46   _n0  ) ))
(let ((_n48 (ite (=  (ite  _n13  1 0)  1)  _n47   _n0  ) ))
(let ((_n49 (ite (=  _n8  997)  _n6   (ite  _n10  1 0)  ) ))
(let ((_n50 (+   _n49   _n49 ) ))
(let ((_n51 (ite (=  _n8  997)  _n50   (ite  _n10  1 0)  ) ))
(let ((_n52 (+   _n0   _n51 ) ))
(let ((_n53 (ite (=  (ite  _n9  1 0)  1)  _n52   _n48  ) ))
(let ((_n54 (=   _n53   _n45 ) ))
(implies  (and (and (>= state_group_0_state_1_6_8_0 0) (< state_group_0_state_1_6_8_0 1024 ))  (and (and (>= state_group_0_state_0_5_7_0 0) (< state_group_0_state_0_5_7_0 1024 ))  (and (>= pkt_0_4_6_0 0) (< pkt_0_4_6_0 1024 )) ) )   (and  _n42  _n54 )  )))))))))))))))))))))))))))))))))))))))))))))))))))))))))
(check-sat)
(get-model)
(exit)